proyfinal/src/viki/013/experimentInOfficeAgust.take6.output/d68465e7-e5c8-4815-920a-fb89b2fe92a6.als.out
Reading from standard input... Use '--help' for help.
============================[ Problem Statistics ]=============================
|                                                                             |
|  Number of variables:         87638                                         |
|  Number of clauses:          161767                                         |
|  Parse time:                   0.04 s                                       |
|                                                                             |
============================[ Search Statistics ]==============================
| Conflicts |          ORIGINAL         |          LEARNT          | Progress |
|           |    Vars  Clauses Literals |    Limit  Clauses Lit/Cl |          |
===============================================================================
|       100 |   65209   115469   287924 |    42338      100     54 | 25.593 % |
|       250 |   65209   115469   287924 |    46572      250     48 | 25.593 % |
|       475 |   65197   115437   287836 |    51229      418     49 | 25.606 % |
|       812 |   65193   115405   287748 |    56352      738     54 | 25.611 % |
|      1318 |   60018   115308   287524 |    61987     1239     46 | 31.516 % |
|      2077 |   59972    98085   245187 |    68186     1889     47 | 31.568 % |
|      3216 |   59949    98031   245054 |    75005     3016     58 | 31.595 % |
|      4924 |   59893    97839   244611 |    82506     4717     73 | 31.659 % |
|      7486 |   59810    97477   243761 |    90756     7271     82 | 31.753 % |
|     11330 |   59700    97037   242747 |    99832    11092     88 | 31.879 % |
|     17096 |   59435    96032   240392 |   109815    16610     98 | 32.181 % |
===============================================================================
restarts              : 66
conflicts             : 19442          (6723 /sec)
decisions             : 94377          (0.00 % random) (32634 /sec)
propagations          : 30245404       (10458260 /sec)
conflict literals     : 1992087        (39.56 % deleted)
Memory used           : 44.50 MB
CPU time              : 2.89201 s

INDETERMINATE
